c 198_4_checker_6cl.cnf
c
c field = 198
c formula set type = 4_checker_6cl
c
p cnf 6 8
392 
396 
398 
400 
-390 
-402 
393 
397 
399 
401 
-391 
-403 
396 
398 
400 
402 
-392 
-404 
397 
399 
401 
403 
-393 
-405 
274 
304 
334 
364 
-244 
-424 
275 
305 
335 
365 
-245 
-425 
282 
310 
338 
366 
-254 
-422 
283 
311 
339 
367 
-255 
-423 
